Route 1: 88 82 85 71 86 98 95 92 94 97 91 89 4 83 84 64 65 49 96 81 76 70 73 79 80 78 77 87 90
Route 2: 75 2 5 7 3 99 100 18 19 33 38 26 28 23 25 10 11 1 93 8
Route 3: 63 61 72 74 69 43 68 57 54 55 56 53 59 44 46 42 50 51 47 52 34 36 35 31 37 39 6
Route 4: 67 62 66 40 60 58 45 41 48 20 29 21 14 15 17 13 16 12 9 30 32 24 27 22
Vehicles: 4
Distance: 1204.00
